c Instancia generada aleatoriamente
p edge 30 35
e 1 2
e 1 16
e 1 27
e 1 28
e 2 20
e 2 21
e 2 23
e 3 24
e 4 6
e 4 9
e 5 19
e 6 12
e 6 26
e 6 30
e 7 12
e 7 28
e 8 20
e 10 16
e 13 22
e 13 25
e 13 29
e 14 20
e 14 22
e 15 18
e 15 27
e 17 20
e 17 30
e 19 26
e 19 29
e 20 25
e 22 25
e 23 24
e 24 29
e 26 28
e 27 30
